%%% static parameters %%%
timespan = 1;
Fact = [2];
Distr1 = [15];
Distr2 = [20];
Clients_N = [100];
Demand_W = [15];
Lt0 = [4];
Lt1 = [4];
SS_ = [0.85];
DS_D = [15];
K = [200];
MA = [500];
%%% dynamic parameters %%%
lost_ratio_sales_ret_th = 0.05004479173688499;
lost_ratio_sales_ret_w = 75;
lost_ratio_sales_dis_th = 0.06349930306119388;
lost_ratio_sales_dis_w = 74;
lost_ratio_sales_fac_th = 0.024060583627336943;
lost_ratio_sales_fac_w = 89;
stock_customer_MA_mean_relative_th = 0.5741238790146851;
stock_customer_MA_mean_relative_w = 49;
stock_distributor_MA_mean_relative_th = 0.09582258396162335;
stock_distributor_MA_mean_relative_w = 84;
stock_retailer_MA_mean_relative_th = 0.2347413488305805;
stock_retailer_MA_mean_relative_w = 78;
stock_factory_MA_mean_relative_th = 0.59099796046443;
stock_factory_MA_mean_relative_w = 30;
